%chk=alabmim_alter.chk
%mem=6MW
%nproc=1
# hf geom=connectivity

Sketch 5

0 2
 N                  1.64760000   -0.22290000   -0.97610000
 C                  0.99410000    0.90000000   -0.67690000
 H                 -0.02750000    0.87800000   -0.09100000
 N                  1.62420000    1.89360000   -1.30280000
 C                  2.69720000    1.39730000   -1.99810000
 H                  3.34880000    2.03810000   -2.58830000
 C                  2.71510000    0.05450000   -1.78790000
 H                  3.38150000   -0.72140000   -2.15750000
 C                  1.22200000   -1.50840000   -0.46240000
 H                  1.42450000   -2.27160000   -1.23490000
 H                  0.12710000   -1.43350000   -0.32340000
 C                  1.89040000   -1.85300000    0.84260000
 H                  1.66080000   -1.05250000    1.57230000
 H                  2.99120000   -1.86160000    0.71350000
 C                  1.41970000   -3.18250000    1.38120000
 H                  1.63330000   -3.97730000    0.63950000
 H                  0.31900000   -3.15330000    1.49200000
 C                  2.06470000   -3.52230000    2.70190000
 H                  3.16440000   -3.56910000    2.60730000
 H                  1.72010000   -4.49630000    3.08680000
 H                  1.82920000   -2.75760000    3.46310000
 C                  1.15790000    3.25900000   -1.26640000
 H                  0.08170000    3.21370000   -0.98390000
 H                  1.27300000    3.70800000   -2.26420000
 H                  1.73340000    3.84240000   -0.52930000

 1 2 1.5 7 1.5 9 1.0
 2 4 1.5 3 1.0
 3
 4 5 1.5 22 1.0
 5 7 1.5 6 1.0
 6
 7 8 1.0
 8
 9 12 1.0 10 1.0 11 1.0
 10
 11
 12 15 1.0 13 1.0 14 1.0
 13
 14
 15 18 1.0 16 1.0 17 1.0
 16
 17
 18 19 1.0 20 1.0 21 1.0
 19
 20
 21
 22 23 1.0 24 1.0 25 1.0
 23
 24
 25

