%chk=alabmim_alter.chk
%mem=6MW
%nproc=1
# hf geom=connectivity

HMIM

0 2
 C                  2.31730000    2.13660000   -2.30900000
 C                  2.28730000    0.84900000   -1.87670000
 C                  0.27210000    1.70920000   -1.55870000
 H                  3.12090000    2.73140000   -2.73720000
 H                  3.06420000    0.08870000   -1.84350000
 H                 -0.86680000    1.88640000   -1.27590000
 N                  1.05990000    2.64330000   -2.09960000
 N                  1.01570000    0.61170000   -1.42210000
 C                  0.60300000    3.97610000   -2.39310000
 H                 -0.44040000    4.05550000   -2.04920000
 H                  0.64780000    4.17000000   -3.47700000
 H                  1.22140000    4.71780000   -1.86230000
 C                  0.51280000   -0.62550000   -0.85210000
 H                  0.30110000   -1.33340000   -1.67560000
 H                 -0.46090000   -0.35130000   -0.37240000
 C                  1.47970000   -1.23060000    0.12890000
 H                  1.79190000   -0.45610000    0.85540000
 H                  2.40370000   -1.58080000   -0.38090000
 C                  0.84490000   -2.39550000    0.85470000
 H                  0.33370000   -3.04910000    0.12150000
 H                  0.04820000   -2.00360000    1.51740000
 C                  1.84030000   -3.21250000    1.64710000
 H                  2.55600000   -3.69310000    0.94640000
 H                  1.31330000   -4.04220000    2.15800000
 C                  2.62050000   -2.41960000    2.66910000
 H                  1.91130000   -1.91230000    3.35350000
 H                  3.18350000   -1.61170000    2.16130000
 C                  3.57400000   -3.28590000    3.45530000
 H                  3.02730000   -4.07520000    4.00240000
 H                  4.15420000   -2.70520000    4.19190000
 H                  4.29090000   -3.79130000    2.78240000

 1 7 1.5 2 1.5 4 1.0
 2 8 1.5 5 1.0
 3 8 1.5 7 1.5 6 1.0
 4
 5
 6
 7 9 1.0
 8 13 1.0
 9 10 1.0 11 1.0 12 1.0
 10
 11
 12
 13 16 1.0 14 1.0 15 1.0
 14
 15
 16 19 1.0 17 1.0 18 1.0
 17
 18
 19 22 1.0 20 1.0 21 1.0
 20
 21
 22 23 1.0 24 1.0 25 1.0
 23
 24
 25 28 1.0 26 1.0 27 1.0
 26
 27
 28 31 1.0 29 1.0 30 1.0
 29
 30
 31

