%chk=gly.chk
%mem=6MW
%nproc=1
# hf/3-21g geom=connectivity

Title Card Required

0 2
 C                  0.56751773   -0.11525683    0.21675151
 O                  1.45779429   -1.05132594    0.37348037
 O                  0.90957099    1.02750202   -0.30332875
 C                 -0.89086077   -0.35986005    0.64675317
 H                 -1.01693941   -0.06112701    1.66644074
 H                 -1.12196659   -1.39998637    0.54863415
 N                 -1.79223797    0.42520469   -0.20887087
 H                 -1.67440746    0.14601493   -1.16184991
 H                 -2.73923699    0.26637143    0.07035099

 1 2 1.5 3 1.5 4 1.0
 2
 3
 4 5 1.0 6 1.0 7 1.0
 5
 6
 7 8 1.0 9 1.0
 8
 9

